centroides = 0;
nNurses = 114;
hours = 43;
demand = [7 13 6 0 24 10 8 26 10 15 4 11 25 23 23 26 6 1 3 18 15 10 20 6 17 11 3 22 5 22 21 12 12 5 3 19 10 16 10 7 4 21 12];
minHours = 6;
maxHours = 14;
maxConsec = 4;
maxPresence = 15;